NAME : ManP-20-0.7054645.tour
COMMENT : Length = 7054645
COMMENT : Found by LKH [Keld Helsgaun] Thu Nov 29 13:06:55 2018
TYPE : TOUR
DIMENSION : 25
TOUR_SECTION
1
24
22
5
17
3
2
15
4
11
20
8
13
21
6
10
23
19
9
12
16
14
18
7
25
-1
EOF
